c Pigeonhole principle formula for 4 pigeons and 2 holes
c Generated with `cnfgen`
c (C) 2012-2018 Massimo Lauria <lauria.massimo@gmail.com>
c https://massimolauria.github.io/cnfgen
c
c COMMAND LINE: cnfgen php 4 2
c
p cnf 8 16
1 2 0
3 4 0
5 6 0
7 8 0
-1 -3 0
-1 -5 0
-1 -7 0
-3 -5 0
-3 -7 0
-5 -7 0
-2 -4 0
-2 -6 0
-2 -8 0
-4 -6 0
-4 -8 0
-6 -8 0
